p tw 102 1224
1 35
1 49
1 60
1 62
1 68
1 78
1 87
1 100
1 2
1 33
1 94
1 70
1 6
1 11
1 12
1 53
1 61
1 63
1 64
1 65
1 66
1 67
1 72
1 73
1 74
1 75
1 76
1 79
1 9
1 82
1 81
1 92
1 3
1 7
1 8
1 10
1 14
1 16
1 71
1 58
1 31
1 30
1 29
1 28
1 27
1 25
1 24
1 23
1 22
1 19
1 18
1 17
1 13
1 26
1 5
1 4
1 102
1 101
1 99
1 98
1 97
1 96
1 95
1 93
1 91
1 90
1 89
1 88
1 86
1 85
1 84
1 83
1 80
1 77
1 37
1 55
1 21
1 56
1 15
1 69
1 57
1 45
1 54
1 59
1 48
2 33
2 94
2 70
2 6
2 11
2 12
2 53
2 61
2 63
2 64
2 65
2 66
2 67
2 72
2 73
2 74
2 75
2 76
2 79
2 9
2 82
2 81
2 92
2 3
2 7
2 8
2 10
2 14
2 16
2 22
2 23
2 24
2 25
2 27
33 94
33 53
33 61
33 63
33 64
33 65
33 66
33 67
33 72
33 73
33 74
33 75
33 76
33 79
33 82
45 69
45 57
57 69
70 6
70 11
70 12
70 53
70 61
70 63
70 64
70 65
70 66
70 67
70 72
70 73
70 74
70 75
70 76
70 79
70 9
70 82
70 81
70 92
70 3
70 7
70 8
70 10
70 14
70 16
81 92
6 11
6 12
6 53
6 61
6 63
6 64
6 65
6 66
6 67
6 72
6 73
6 74
6 75
6 76
6 79
6 9
6 82
6 7
6 8
6 10
6 14
6 16
7 8
11 12
11 53
11 61
11 63
11 64
11 65
11 66
11 67
11 72
11 73
11 74
11 75
11 76
11 79
11 82
11 14
11 16
12 53
12 61
12 63
12 64
12 65
12 66
12 67
12 72
12 73
12 74
12 75
12 76
12 79
12 82
12 14
12 16
12 22
12 23
12 24
12 25
12 27
12 19
14 16
18 27
18 25
18 24
18 23
18 22
18 19
19 27
19 25
19 24
19 23
19 22
20 32
20 34
20 36
20 38
20 39
20 40
20 41
20 42
20 43
20 44
20 46
20 47
20 50
20 51
20 52
20 54
20 55
20 56
20 58
20 71
20 77
20 80
20 83
20 84
20 85
20 86
20 88
20 89
20 90
20 91
20 93
20 95
20 96
20 97
20 98
20 99
20 101
20 102
20 4
20 5
20 21
20 45
20 57
20 69
20 22
20 23
20 24
20 25
20 27
20 28
20 29
20 30
20 31
20 76
20 75
20 74
20 73
20 72
20 67
20 66
20 65
20 64
20 63
20 61
20 79
20 53
20 82
22 27
22 25
22 24
22 23
23 27
23 25
23 24
24 27
24 25
25 27
28 29
29 30
30 31
32 34
32 36
32 38
32 39
32 40
32 41
32 42
32 43
32 44
32 46
32 47
32 50
32 51
32 52
32 54
32 55
32 56
32 58
32 71
32 77
32 80
32 83
32 84
32 85
32 86
32 88
32 89
32 90
32 91
32 93
32 95
32 96
32 97
32 98
32 99
32 101
32 102
32 4
32 5
32 45
32 57
32 69
34 36
34 38
34 39
34 40
34 41
34 42
34 43
34 44
34 46
34 47
34 50
34 51
34 52
34 54
34 55
34 56
34 58
34 71
34 77
34 80
34 83
34 84
34 85
34 86
34 88
34 89
34 90
34 91
34 93
34 95
34 96
34 97
34 98
34 99
34 101
34 102
34 4
34 5
34 45
34 57
34 69
35 49
35 60
35 62
35 68
35 78
35 87
35 100
35 94
35 53
35 61
35 63
35 64
35 65
35 66
35 67
35 72
35 73
35 74
35 75
35 76
35 79
35 82
35 71
35 58
35 5
35 4
35 102
35 101
35 99
35 98
35 97
35 96
35 95
35 93
35 91
35 90
35 89
35 88
35 86
35 85
35 84
35 83
35 80
35 77
35 55
35 56
35 69
35 57
35 45
35 54
36 38
36 39
36 40
36 41
36 42
36 43
36 44
36 46
36 47
36 50
36 51
36 52
36 54
36 55
36 56
36 58
36 71
36 77
36 80
36 83
36 84
36 85
36 86
36 88
36 89
36 90
36 91
36 93
36 95
36 96
36 97
36 98
36 99
36 101
36 102
36 4
36 5
36 45
36 57
36 69
38 39
38 40
38 41
38 42
38 43
38 44
38 46
38 47
38 50
38 51
38 52
38 54
38 55
38 56
38 58
38 71
38 77
38 80
38 83
38 84
38 85
38 86
38 88
38 89
38 90
38 91
38 93
38 95
38 96
38 97
38 98
38 99
38 101
38 102
38 4
38 5
38 45
38 57
38 69
39 40
39 41
39 42
39 43
39 44
39 46
39 47
39 50
39 51
39 52
39 54
39 55
39 56
39 58
39 71
39 77
39 80
39 83
39 84
39 85
39 86
39 88
39 89
39 90
39 91
39 93
39 95
39 96
39 97
39 98
39 99
39 101
39 102
39 4
39 5
39 45
39 57
39 69
39 61
40 41
40 42
40 43
40 44
40 46
40 47
40 50
40 51
40 52
40 54
40 55
40 56
40 58
40 71
40 77
40 80
40 83
40 84
40 85
40 86
40 88
40 89
40 90
40 91
40 93
40 95
40 96
40 97
40 98
40 99
40 101
40 102
40 4
40 5
40 45
40 57
40 69
40 63
40 61
41 42
41 43
41 44
41 46
41 47
41 50
41 51
41 52
41 54
41 55
41 56
41 58
41 71
41 77
41 80
41 83
41 84
41 85
41 86
41 88
41 89
41 90
41 91
41 93
41 95
41 96
41 97
41 98
41 99
41 101
41 102
41 4
41 5
41 45
41 57
41 69
41 64
41 63
41 61
42 43
42 44
42 46
42 47
42 50
42 51
42 52
42 54
42 55
42 56
42 58
42 71
42 77
42 80
42 83
42 84
42 85
42 86
42 88
42 89
42 90
42 91
42 93
42 95
42 96
42 97
42 98
42 99
42 101
42 102
42 4
42 5
42 45
42 57
42 69
42 65
42 64
42 63
42 61
43 44
43 46
43 47
43 50
43 51
43 52
43 54
43 55
43 56
43 58
43 71
43 77
43 80
43 83
43 84
43 85
43 86
43 88
43 89
43 90
43 91
43 93
43 95
43 96
43 97
43 98
43 99
43 101
43 102
43 4
43 5
43 45
43 57
43 69
43 66
43 65
43 64
43 63
43 61
44 46
44 47
44 50
44 51
44 52
44 54
44 55
44 56
44 58
44 71
44 77
44 80
44 83
44 84
44 85
44 86
44 88
44 89
44 90
44 91
44 93
44 95
44 96
44 97
44 98
44 99
44 101
44 102
44 4
44 5
44 45
44 57
44 69
46 47
46 50
46 51
46 52
46 54
46 55
46 56
46 58
46 71
46 77
46 80
46 83
46 84
46 85
46 86
46 88
46 89
46 90
46 91
46 93
46 95
46 96
46 97
46 98
46 99
46 101
46 102
46 4
46 5
46 57
46 69
47 50
47 51
47 52
47 54
47 55
47 56
47 58
47 71
47 77
47 80
47 83
47 84
47 85
47 86
47 88
47 89
47 90
47 91
47 93
47 95
47 96
47 97
47 98
47 99
47 101
47 102
47 4
47 5
47 57
47 69
49 60
49 62
49 68
49 78
49 87
49 100
49 94
49 53
49 61
49 63
49 64
49 65
49 66
49 67
49 72
49 73
49 74
49 75
49 76
49 79
49 82
49 71
50 51
50 52
50 54
50 55
50 56
50 58
50 71
50 77
50 80
50 83
50 84
50 85
50 86
50 88
50 89
50 90
50 91
50 93
50 95
50 96
50 97
50 98
50 99
50 101
50 102
50 4
50 5
50 57
50 69
51 52
51 54
51 55
51 56
51 58
51 71
51 77
51 80
51 83
51 84
51 85
51 86
51 88
51 89
51 90
51 91
51 93
51 95
51 96
51 97
51 98
51 99
51 101
51 102
51 4
51 5
51 57
51 69
52 54
52 55
52 56
52 58
52 71
52 77
52 80
52 83
52 84
52 85
52 86
52 88
52 89
52 90
52 91
52 93
52 95
52 96
52 97
52 98
52 99
52 101
52 102
52 4
52 5
52 57
52 69
53 79
53 76
53 75
53 74
53 73
53 72
53 67
53 66
53 65
53 64
53 63
53 61
54 5
54 4
54 102
54 101
54 99
54 96
54 95
54 91
54 80
54 71
55 5
55 4
55 102
55 101
55 99
55 96
55 95
55 91
55 80
55 71
56 5
56 4
56 102
56 101
56 99
56 96
56 95
56 91
56 80
56 71
60 62
60 68
60 78
60 87
60 100
60 94
60 61
60 63
60 64
60 65
60 66
60 67
60 72
60 73
60 74
60 75
60 76
60 79
60 82
61 76
61 75
61 74
61 73
61 72
61 67
61 66
61 65
61 64
61 63
61 79
61 82
62 68
62 78
62 87
62 100
62 94
62 63
62 64
62 65
62 66
62 67
62 72
62 73
62 74
62 75
62 76
62 79
62 82
63 76
63 75
63 74
63 73
63 72
63 67
63 66
63 65
63 64
63 79
63 82
64 76
64 75
64 74
64 73
64 72
64 67
64 66
64 65
64 79
64 82
65 76
65 75
65 74
65 73
65 72
65 67
65 66
65 79
65 82
66 76
66 75
66 74
66 73
66 72
66 67
66 79
66 82
67 76
67 75
67 74
67 73
67 72
67 79
67 82
68 78
68 87
68 100
68 94
68 72
68 73
68 74
68 75
68 76
68 79
68 82
71 5
71 4
71 102
71 101
71 99
71 98
71 97
71 96
71 95
71 93
71 91
71 90
71 89
71 88
71 86
71 85
71 84
71 83
71 80
71 77
72 76
72 75
72 74
72 73
72 79
72 82
73 76
73 75
73 74
73 79
73 82
74 76
74 75
74 79
74 82
75 76
75 79
75 82
76 79
76 82
77 83
77 80
78 87
78 100
78 94
78 79
78 82
79 82
80 5
80 4
80 102
80 101
80 99
80 98
80 97
80 96
80 95
80 93
80 91
80 90
80 89
80 88
80 86
80 85
80 84
80 83
84 89
84 88
84 86
84 85
85 91
85 90
85 89
85 88
85 86
86 93
86 91
86 90
86 89
86 88
87 100
87 94
88 95
88 93
88 91
88 90
88 89
89 97
89 96
89 95
89 93
89 91
89 90
90 99
90 98
90 97
90 96
90 95
90 93
90 91
91 5
91 4
91 102
91 101
91 99
91 98
91 97
91 96
91 95
91 93
93 96
93 95
95 5
95 4
95 102
95 101
95 99
95 98
95 97
95 96
96 5
96 4
96 102
96 101
96 99
96 98
96 97
97 102
97 101
97 99
97 98
98 5
98 4
98 102
98 101
98 99
99 5
99 4
99 102
99 101
101 5
101 4
101 102
102 5
102 4
4 5
26 37
26 21
26 69
26 57
26 45
26 59
26 48
